(set-info :source  loris-7.ddns.comp.nus.edu.sg/~project/hip/) 
;Variables declarations
(declare-fun q_2797 () Int)
(declare-fun Anon_2796 () Int)
(declare-fun Anon_2781 () Int)
(declare-fun n () Int)
(declare-fun v_bool_376_1565_primed () Int)
(declare-fun ys_2788 () Int)
(declare-fun ys () Int)
(declare-fun xs () Int)
(declare-fun next_380_2787 () Int)
(declare-fun q_2782 () Int)
(declare-fun ys_2804 () Int)
(declare-fun xs_2803 () Int)
(declare-fun tmp_primed () Int)
(declare-fun m () Int)
(declare-fun xs_2789 () Int)
(declare-fun flted_14_2780 () Int)
(declare-fun xs_primed () Int)
(declare-fun n_2790 () Int)
(declare-fun m_2791 () Int)
(declare-fun flted_191_2805 () Int)
(declare-fun ys_primed () Int)
;Relations declarations
;Axioms assertions
;Antecedent
(assert (= (+ m 1) m_2791))
(assert (= q_2797 ys_2788))
(assert (= Anon_2796 Anon_2781))
(assert (= (+ flted_14_2780 1) n))
(assert (> v_bool_376_1565_primed 0))
(assert (= ys_2788 ys))
(assert (= xs_2789 xs))
(assert (= tmp_primed q_2782))
(assert (= next_380_2787 q_2782))
(assert (= ys_2804 xs_2789))
(assert (= xs_2803 tmp_primed))
(assert (= n_2790 flted_14_2780))
(assert (<= 0 m))
(assert (> xs_2789 0))
(assert (<= 0 flted_14_2780))
(assert (= flted_191_2805 (+ m_2791 n_2790)))
(assert (< xs_primed 1))
(assert (<= 0 n_2790))
(assert (<= 0 m_2791))
(assert (or (and (< ys_primed 1) (= flted_191_2805 0)) (and (<= 1 flted_191_2805) (> ys_primed 0))))
;Negation of Consequence
(assert (not false))
(check-sat)